benchmark/results/graph__10-1000-0.10-02_4/graph__10-1000-0.10-02_4_QuintonOs_Benders_aux.lp
\ This file has been generated by DOcplex
\ ENCODING=ISO-8859-1
\Problem name: Quinton Bounded Benders_auxiliary_sub

Minimize
 obj: 0.001163948013 pi_nr_a0 + 0.003390926345 pi_nr_a1
      + 0.001686242455 pi_nr_a2 + 0.000933528380 pi_nr_a3
      + 0.001097387749 pi_nr_a4 + 0.001266062282 pi_nr_a5
      + 0.001049694473 pi_nr_a6 + 0.001047663616 pi_nr_a7
      + 0.001243581515 pi_nr_a8 + 0.000824541745 pi_nr_a9 + pi_p_a3_a4
      + pi_p_a3_a7 + pi_p_a8_a4 + 1347.218750000000 pi_d_a0_a1_proc_1
      + 1194.343750000000 pi_d_a0_a1_proc_0
      + 1329.062500000000 pi_d_a1_a0_proc_1
      + 1176.187500000000 pi_d_a1_a0_proc_0
      + 1385.781250000000 pi_d_a0_a2_proc_1
      + 1156.468750000000 pi_d_a0_a2_proc_0
      + 1366.937500000000 pi_d_a2_a0_proc_1
      + 1137.625000000000 pi_d_a2_a0_proc_0 + 308 pi_d_a0_a3_proc_1
      + 2218.937500000000 pi_d_a0_a3_proc_0 + 304.468750000000 pi_d_a3_a0_proc_1
      + 2215.406250000000 pi_d_a3_a0_proc_0 + 383.156250000000 pi_d_a0_a4_proc_1
      + 2141.218750000000 pi_d_a0_a4_proc_0 + 382.187500000000 pi_d_a4_a0_proc_1
      + 2140.250000000000 pi_d_a4_a0_proc_0
      + 1234.281250000000 pi_d_a0_a5_proc_1
      + 1310.718750000000 pi_d_a0_a5_proc_0
      + 1212.687500000000 pi_d_a5_a0_proc_1
      + 1289.125000000000 pi_d_a5_a0_proc_0
      + 1234.281250000000 pi_d_a0_a6_proc_1
      + 1310.718750000000 pi_d_a0_a6_proc_0
      + 1212.687500000000 pi_d_a6_a0_proc_1
      + 1289.125000000000 pi_d_a6_a0_proc_0
      + 1385.781250000000 pi_d_a0_a7_proc_1
      + 1156.468750000000 pi_d_a0_a7_proc_0
      + 1366.937500000000 pi_d_a7_a0_proc_1
      + 1137.625000000000 pi_d_a7_a0_proc_0 + 231.656250000000 pi_d_a0_a8_proc_1
      + 227.937500000000 pi_d_a8_a0_proc_1 + 460.281250000000 pi_d_a0_a9_proc_1
      + 2065.468750000000 pi_d_a0_a9_proc_0 + 457.937500000000 pi_d_a9_a0_proc_1
      + 2063.125000000000 pi_d_a9_a0_proc_0
      + 2333.343750000000 pi_d_a1_a2_proc_1 + 193.093750000000 pi_d_a1_a2_proc_0
      + 2330.312500000000 pi_d_a2_a1_proc_1 + 190.062500000000 pi_d_a2_a1_proc_0
      + 1272.843750000000 pi_d_a1_a3_proc_1
      + 1272.843750000000 pi_d_a1_a3_proc_0
      + 1250.562500000000 pi_d_a3_a1_proc_1
      + 1250.562500000000 pi_d_a3_a1_proc_0
      + 1347.218750000000 pi_d_a1_a4_proc_1
      + 1194.343750000000 pi_d_a1_a4_proc_0
      + 1329.062500000000 pi_d_a4_a1_proc_1
      + 1176.187500000000 pi_d_a4_a1_proc_0
      + 2181.843750000000 pi_d_a1_a5_proc_1 + 347.343750000000 pi_d_a1_a5_proc_0
      + 2176.062500000000 pi_d_a5_a1_proc_1 + 341.562500000000 pi_d_a5_a1_proc_0
      + 2181.843750000000 pi_d_a1_a6_proc_1 + 347.343750000000 pi_d_a1_a6_proc_0
      + 2176.062500000000 pi_d_a6_a1_proc_1 + 341.562500000000 pi_d_a6_a1_proc_0
      + 2333.343750000000 pi_d_a1_a7_proc_1 + 193.093750000000 pi_d_a1_a7_proc_0
      + 2330.312500000000 pi_d_a7_a1_proc_1 + 190.062500000000 pi_d_a7_a1_proc_0
      + 1195.718750000000 pi_d_a1_a8_proc_1
      + 1174.812500000000 pi_d_a8_a1_proc_1
      + 1424.343750000000 pi_d_a1_a9_proc_1
      + 1118.593750000000 pi_d_a1_a9_proc_0
      + 1404.812500000000 pi_d_a9_a1_proc_1
      + 1099.062500000000 pi_d_a9_a1_proc_0
      + 1309.937500000000 pi_d_a2_a3_proc_1
      + 1233.500000000000 pi_d_a2_a3_proc_0
      + 1289.906250000000 pi_d_a3_a2_proc_1
      + 1213.468750000000 pi_d_a3_a2_proc_0
      + 1385.781250000000 pi_d_a2_a4_proc_1
      + 1156.468750000000 pi_d_a2_a4_proc_0
      + 1366.937500000000 pi_d_a4_a2_proc_1
      + 1137.625000000000 pi_d_a4_a2_proc_0
      + 2219.031250000000 pi_d_a2_a5_proc_1 + 308.093750000000 pi_d_a2_a5_proc_0
      + 2215.312500000000 pi_d_a5_a2_proc_1 + 304.375000000000 pi_d_a5_a2_proc_0
      + 2219.031250000000 pi_d_a2_a6_proc_1 + 308.093750000000 pi_d_a2_a6_proc_0
      + 2215.312500000000 pi_d_a6_a2_proc_1 + 304.375000000000 pi_d_a6_a2_proc_0
      + 2370.531250000000 pi_d_a2_a7_proc_1 + 153.843750000000 pi_d_a2_a7_proc_0
      + 2369.562500000000 pi_d_a7_a2_proc_1 + 152.875000000000 pi_d_a7_a2_proc_0
      + 1234.281250000000 pi_d_a2_a8_proc_1
      + 1212.687500000000 pi_d_a8_a2_proc_1
      + 1461.531250000000 pi_d_a2_a9_proc_1
      + 1079.343750000000 pi_d_a2_a9_proc_0
      + 1444.062500000000 pi_d_a9_a2_proc_1
      + 1061.875000000000 pi_d_a9_a2_proc_0 + 308.781250000000 pi_d_a3_a4_proc_1
      + 2219.718750000000 pi_d_a3_a4_proc_0 + 303.687500000000 pi_d_a4_a3_proc_1
      + 2214.625000000000 pi_d_a4_a3_proc_0
      + 1155.781250000000 pi_d_a3_a5_proc_1
      + 1385.093750000000 pi_d_a3_a5_proc_0
      + 1138.312500000000 pi_d_a5_a3_proc_1
      + 1367.625000000000 pi_d_a5_a3_proc_0
      + 1155.781250000000 pi_d_a3_a6_proc_1
      + 1385.093750000000 pi_d_a3_a6_proc_0
      + 1138.312500000000 pi_d_a6_a3_proc_1
      + 1367.625000000000 pi_d_a6_a3_proc_0
      + 1310.031250000000 pi_d_a3_a7_proc_1
      + 1233.593750000000 pi_d_a3_a7_proc_0
      + 1289.812500000000 pi_d_a7_a3_proc_1
      + 1213.375000000000 pi_d_a7_a3_proc_0 + 154.531250000000 pi_d_a3_a8_proc_1
      + 152.187500000000 pi_d_a8_a3_proc_1 + 384.531250000000 pi_d_a3_a9_proc_1
      + 2142.593750000000 pi_d_a3_a9_proc_0 + 380.812500000000 pi_d_a9_a3_proc_1
      + 2138.875000000000 pi_d_a9_a3_proc_0
      + 1234.250000000000 pi_d_a4_a5_proc_1
      + 1310.687500000000 pi_d_a4_a5_proc_0
      + 1212.718750000000 pi_d_a5_a4_proc_1
      + 1289.156250000000 pi_d_a5_a4_proc_0
      + 1234.250000000000 pi_d_a4_a6_proc_1
      + 1310.687500000000 pi_d_a4_a6_proc_0
      + 1212.718750000000 pi_d_a6_a4_proc_1
      + 1289.156250000000 pi_d_a6_a4_proc_0
      + 1385.781250000000 pi_d_a4_a7_proc_1
      + 1156.468750000000 pi_d_a4_a7_proc_0
      + 1366.937500000000 pi_d_a7_a4_proc_1
      + 1137.625000000000 pi_d_a7_a4_proc_0 + 230.812500000000 pi_d_a4_a8_proc_1
      + 228.781250000000 pi_d_a8_a4_proc_1 + 459.375000000000 pi_d_a4_a9_proc_1
      + 2064.562500000000 pi_d_a4_a9_proc_0 + 458.843750000000 pi_d_a9_a4_proc_1
      + 2064.031250000000 pi_d_a9_a4_proc_0
      + 2064.781250000000 pi_d_a5_a6_proc_1 + 459.593750000000 pi_d_a5_a6_proc_0
      + 2063.812500000000 pi_d_a6_a5_proc_1 + 458.625000000000 pi_d_a6_a5_proc_0
      + 2219.031250000000 pi_d_a5_a7_proc_1 + 308.093750000000 pi_d_a5_a7_proc_0
      + 2215.312500000000 pi_d_a7_a5_proc_1 + 304.375000000000 pi_d_a7_a5_proc_0
      + 1080.031250000000 pi_d_a5_a8_proc_1
      + 1061.187500000000 pi_d_a8_a5_proc_1
      + 1310.031250000000 pi_d_a5_a9_proc_1
      + 1233.593750000000 pi_d_a5_a9_proc_0
      + 1289.812500000000 pi_d_a9_a5_proc_1
      + 1213.375000000000 pi_d_a9_a5_proc_0
      + 2219.031250000000 pi_d_a6_a7_proc_1 + 308.093750000000 pi_d_a6_a7_proc_0
      + 2215.312500000000 pi_d_a7_a6_proc_1 + 304.375000000000 pi_d_a7_a6_proc_0
      + 1062.625000000000 pi_d_a6_a8_proc_1
      + 1078.593750000000 pi_d_a8_a6_proc_1
      + 1309.968750000000 pi_d_a6_a9_proc_1
      + 1233.531250000000 pi_d_a6_a9_proc_0
      + 1289.875000000000 pi_d_a9_a6_proc_1
      + 1213.437500000000 pi_d_a9_a6_proc_0
      + 1234.250000000000 pi_d_a7_a8_proc_1
      + 1212.718750000000 pi_d_a8_a7_proc_1
      + 1461.312500000000 pi_d_a7_a9_proc_1
      + 1079.125000000000 pi_d_a7_a9_proc_0
      + 1444.281250000000 pi_d_a9_a7_proc_1
      + 1062.093750000000 pi_d_a9_a7_proc_0 + 308.781250000000 pi_d_a8_a9_proc_1
      + 303.687500000000 pi_d_a9_a8_proc_1 + 0.125000000000 pi_y2_a0_proc_0
      + 0.843750000000 pi_y2_a0_proc_1 + 0.906250000000 pi_y2_a1_proc_0
      + 0.062500000000 pi_y2_a1_proc_1 + 0.937500000000 pi_y2_a2_proc_0
      + 0.031250000000 pi_y2_a2_proc_1 + 0.062500000000 pi_y2_a3_proc_0
      + 0.906250000000 pi_y2_a3_proc_1 + 0.125000000000 pi_y2_a4_proc_0
      + 0.843750000000 pi_y2_a4_proc_1 + 0.812500000000 pi_y2_a5_proc_0
      + 0.156250000000 pi_y2_a5_proc_1 + 0.812500000000 pi_y2_a6_proc_0
      + 0.156250000000 pi_y2_a6_proc_1 + 0.937500000000 pi_y2_a7_proc_0
      + 0.031250000000 pi_y2_a7_proc_1 + 0.968750000000 pi_y2_a8_proc_1
      + 0.187500000000 pi_y2_a9_proc_0 + 0.781250000000 pi_y2_a9_proc_1
Subject To
 c1: 0.001257861635 pi_nr_a0 + 0.003649635036 pi_nr_a1 + 0.001760563380 pi_nr_a2
     + 0.000973709834 pi_nr_a3 + 0.001136363636 pi_nr_a4
     + 0.001362397820 pi_nr_a5 + 0.000919963201 pi_nr_a6
     + 0.001088139282 pi_nr_a7 + 0.001283697047 pi_nr_a8
     + 0.000858369099 pi_nr_a9 + pi_p_a3_a4 + pi_p_a3_a7 + pi_p_a8_a4
     + 1235 pi_d_a0_a1_proc_1 + 1235 pi_d_a0_a1_proc_0 + 1212 pi_d_a1_a0_proc_1
     + 1212 pi_d_a1_a0_proc_0 + 1235 pi_d_a0_a2_proc_1 + 1235 pi_d_a0_a2_proc_0
     + 1212 pi_d_a2_a0_proc_1 + 1212 pi_d_a2_a0_proc_0 + 2446 pi_d_a0_a3_proc_0
     + pi_d_a3_a0_proc_1 + 2447 pi_d_a3_a0_proc_0 + pi_d_a0_a4_proc_1
     + 2447 pi_d_a0_a4_proc_0 + 2446 pi_d_a4_a0_proc_0 + 1235 pi_d_a0_a5_proc_1
     + 1235 pi_d_a0_a5_proc_0 + 1212 pi_d_a5_a0_proc_1 + 1212 pi_d_a5_a0_proc_0
     + 1235 pi_d_a0_a6_proc_1 + 1235 pi_d_a0_a6_proc_0 + 1212 pi_d_a6_a0_proc_1
     + 1212 pi_d_a6_a0_proc_0 + 1235 pi_d_a0_a7_proc_1 + 1235 pi_d_a0_a7_proc_0
     + 1212 pi_d_a7_a0_proc_1 + 1212 pi_d_a7_a0_proc_0 + pi_d_a0_a8_proc_1
     + pi_d_a0_a9_proc_1 + 2447 pi_d_a0_a9_proc_0 + 2446 pi_d_a9_a0_proc_0
     + 2447 pi_d_a1_a2_proc_1 + pi_d_a1_a2_proc_0 + 2446 pi_d_a2_a1_proc_1
     + 1235 pi_d_a1_a3_proc_1 + 1235 pi_d_a1_a3_proc_0 + 1212 pi_d_a3_a1_proc_1
     + 1212 pi_d_a3_a1_proc_0 + 1235 pi_d_a1_a4_proc_1 + 1235 pi_d_a1_a4_proc_0
     + 1212 pi_d_a4_a1_proc_1 + 1212 pi_d_a4_a1_proc_0 + 2447 pi_d_a1_a5_proc_1
     + pi_d_a1_a5_proc_0 + 2446 pi_d_a5_a1_proc_1 + 2447 pi_d_a1_a6_proc_1
     + pi_d_a1_a6_proc_0 + 2446 pi_d_a6_a1_proc_1 + 2447 pi_d_a1_a7_proc_1
     + pi_d_a1_a7_proc_0 + 2446 pi_d_a7_a1_proc_1 + 1235 pi_d_a1_a8_proc_1
     + 1212 pi_d_a8_a1_proc_1 + 1235 pi_d_a1_a9_proc_1 + 1235 pi_d_a1_a9_proc_0
     + 1212 pi_d_a9_a1_proc_1 + 1212 pi_d_a9_a1_proc_0 + 1235 pi_d_a2_a3_proc_1
     + 1235 pi_d_a2_a3_proc_0 + 1212 pi_d_a3_a2_proc_1 + 1212 pi_d_a3_a2_proc_0
     + 1235 pi_d_a2_a4_proc_1 + 1235 pi_d_a2_a4_proc_0 + 1212 pi_d_a4_a2_proc_1
     + 1212 pi_d_a4_a2_proc_0 + 2447 pi_d_a2_a5_proc_1 + pi_d_a2_a5_proc_0
     + 2446 pi_d_a5_a2_proc_1 + 2447 pi_d_a2_a6_proc_1 + pi_d_a2_a6_proc_0
     + 2446 pi_d_a6_a2_proc_1 + 2447 pi_d_a2_a7_proc_1 + pi_d_a2_a7_proc_0
     + 2446 pi_d_a7_a2_proc_1 + 1235 pi_d_a2_a8_proc_1 + 1212 pi_d_a8_a2_proc_1
     + 1235 pi_d_a2_a9_proc_1 + 1235 pi_d_a2_a9_proc_0 + 1212 pi_d_a9_a2_proc_1
     + 1212 pi_d_a9_a2_proc_0 + pi_d_a3_a4_proc_1 + 2447 pi_d_a3_a4_proc_0
     + 2446 pi_d_a4_a3_proc_0 + 1235 pi_d_a3_a5_proc_1 + 1235 pi_d_a3_a5_proc_0
     + 1212 pi_d_a5_a3_proc_1 + 1212 pi_d_a5_a3_proc_0 + 1235 pi_d_a3_a6_proc_1
     + 1235 pi_d_a3_a6_proc_0 + 1212 pi_d_a6_a3_proc_1 + 1212 pi_d_a6_a3_proc_0
     + 1235 pi_d_a3_a7_proc_1 + 1235 pi_d_a3_a7_proc_0 + 1212 pi_d_a7_a3_proc_1
     + 1212 pi_d_a7_a3_proc_0 + pi_d_a3_a8_proc_1 + pi_d_a3_a9_proc_1
     + 2447 pi_d_a3_a9_proc_0 + 2446 pi_d_a9_a3_proc_0 + 1235 pi_d_a4_a5_proc_1
     + 1235 pi_d_a4_a5_proc_0 + 1212 pi_d_a5_a4_proc_1 + 1212 pi_d_a5_a4_proc_0
     + 1235 pi_d_a4_a6_proc_1 + 1235 pi_d_a4_a6_proc_0 + 1212 pi_d_a6_a4_proc_1
     + 1212 pi_d_a6_a4_proc_0 + 1235 pi_d_a4_a7_proc_1 + 1235 pi_d_a4_a7_proc_0
     + 1212 pi_d_a7_a4_proc_1 + 1212 pi_d_a7_a4_proc_0 + pi_d_a8_a4_proc_1
     + 2446 pi_d_a4_a9_proc_0 + pi_d_a9_a4_proc_1 + 2447 pi_d_a9_a4_proc_0
     + 2447 pi_d_a5_a6_proc_1 + pi_d_a5_a6_proc_0 + 2446 pi_d_a6_a5_proc_1
     + 2447 pi_d_a5_a7_proc_1 + pi_d_a5_a7_proc_0 + 2446 pi_d_a7_a5_proc_1
     + 1235 pi_d_a5_a8_proc_1 + 1212 pi_d_a8_a5_proc_1 + 1235 pi_d_a5_a9_proc_1
     + 1235 pi_d_a5_a9_proc_0 + 1212 pi_d_a9_a5_proc_1 + 1212 pi_d_a9_a5_proc_0
     + 2447 pi_d_a6_a7_proc_1 + pi_d_a6_a7_proc_0 + 2446 pi_d_a7_a6_proc_1
     + 1212 pi_d_a6_a8_proc_1 + 1235 pi_d_a8_a6_proc_1 + 1235 pi_d_a6_a9_proc_1
     + 1235 pi_d_a6_a9_proc_0 + 1212 pi_d_a9_a6_proc_1 + 1212 pi_d_a9_a6_proc_0
     + 1235 pi_d_a7_a8_proc_1 + 1212 pi_d_a8_a7_proc_1 + 1235 pi_d_a7_a9_proc_1
     + 1235 pi_d_a7_a9_proc_0 + 1212 pi_d_a9_a7_proc_1 + 1212 pi_d_a9_a7_proc_0
     + pi_d_a8_a9_proc_1 + pi_y2_a0_proc_1 + pi_y2_a1_proc_0 + pi_y2_a2_proc_0
     + pi_y2_a3_proc_1 + pi_y2_a4_proc_1 + pi_y2_a5_proc_0 + pi_y2_a6_proc_0
     + pi_y2_a7_proc_0 + pi_y2_a8_proc_1 + pi_y2_a9_proc_1 = 0.000140036409
 c2: pi_nr_a0 + pi_nr_a1 + pi_nr_a2 + pi_nr_a3 + pi_nr_a4 + pi_nr_a5 + pi_nr_a6
     + pi_nr_a7 + pi_nr_a8 + pi_nr_a9 - pi_y1_a0 - pi_y1_a1 - pi_y1_a2
     - pi_y1_a3 - pi_y1_a4 - pi_y1_a5 - pi_y1_a6 - pi_y1_a7 - pi_y1_a8
     - pi_y1_a9 >= 1
 c3: - pi_p_a1_a0 + pi_p_a0_a3 - pi_p_a6_a0 + pi_d_a0_a1_proc_1
     + pi_d_a0_a1_proc_0 - pi_d_a1_a0_proc_1 - pi_d_a1_a0_proc_0
     + pi_d_a0_a2_proc_1 + pi_d_a0_a2_proc_0 - pi_d_a2_a0_proc_1
     - pi_d_a2_a0_proc_0 + pi_d_a0_a3_proc_1 + pi_d_a0_a3_proc_0
     - pi_d_a3_a0_proc_1 - pi_d_a3_a0_proc_0 + pi_d_a0_a4_proc_1
     + pi_d_a0_a4_proc_0 - pi_d_a4_a0_proc_1 - pi_d_a4_a0_proc_0
     + pi_d_a0_a5_proc_1 + pi_d_a0_a5_proc_0 - pi_d_a5_a0_proc_1
     - pi_d_a5_a0_proc_0 + pi_d_a0_a6_proc_1 + pi_d_a0_a6_proc_0
     - pi_d_a6_a0_proc_1 - pi_d_a6_a0_proc_0 + pi_d_a0_a7_proc_1
     + pi_d_a0_a7_proc_0 - pi_d_a7_a0_proc_1 - pi_d_a7_a0_proc_0
     + pi_d_a0_a8_proc_1 - pi_d_a8_a0_proc_1 + pi_d_a0_a9_proc_1
     + pi_d_a0_a9_proc_0 - pi_d_a9_a0_proc_1 - pi_d_a9_a0_proc_0 >= 0
 c4: 1218 pi_p_a0_a3 + 1218 pi_d_a0_a1_proc_0 + 1218 pi_d_a0_a2_proc_0
     + 1218 pi_d_a0_a3_proc_0 + 1218 pi_d_a0_a4_proc_0 + 1218 pi_d_a0_a5_proc_0
     + 1218 pi_d_a0_a6_proc_0 + 1218 pi_d_a0_a7_proc_0 + 1218 pi_d_a0_a9_proc_0
     + pi_y1_a0 + pi_y2_a0_proc_0 >= 0
 c5: 795 pi_p_a0_a3 + 795 pi_d_a0_a1_proc_1 + 795 pi_d_a0_a2_proc_1
     + 795 pi_d_a0_a3_proc_1 + 795 pi_d_a0_a4_proc_1 + 795 pi_d_a0_a5_proc_1
     + 795 pi_d_a0_a6_proc_1 + 795 pi_d_a0_a7_proc_1 + 795 pi_d_a0_a8_proc_1
     + 795 pi_d_a0_a9_proc_1 + pi_y1_a0 + pi_y2_a0_proc_1 >= 0
 c6: pi_p_a1_a0 - pi_p_a2_a1 - pi_d_a0_a1_proc_1 - pi_d_a0_a1_proc_0
     + pi_d_a1_a0_proc_1 + pi_d_a1_a0_proc_0 + pi_d_a1_a2_proc_1
     + pi_d_a1_a2_proc_0 - pi_d_a2_a1_proc_1 - pi_d_a2_a1_proc_0
     + pi_d_a1_a3_proc_1 + pi_d_a1_a3_proc_0 - pi_d_a3_a1_proc_1
     - pi_d_a3_a1_proc_0 + pi_d_a1_a4_proc_1 + pi_d_a1_a4_proc_0
     - pi_d_a4_a1_proc_1 - pi_d_a4_a1_proc_0 + pi_d_a1_a5_proc_1
     + pi_d_a1_a5_proc_0 - pi_d_a5_a1_proc_1 - pi_d_a5_a1_proc_0
     + pi_d_a1_a6_proc_1 + pi_d_a1_a6_proc_0 - pi_d_a6_a1_proc_1
     - pi_d_a6_a1_proc_0 + pi_d_a1_a7_proc_1 + pi_d_a1_a7_proc_0
     - pi_d_a7_a1_proc_1 - pi_d_a7_a1_proc_0 + pi_d_a1_a8_proc_1
     - pi_d_a8_a1_proc_1 + pi_d_a1_a9_proc_1 + pi_d_a1_a9_proc_0
     - pi_d_a9_a1_proc_1 - pi_d_a9_a1_proc_0 >= 0
 c7: 274 pi_p_a1_a0 + 274 pi_d_a1_a0_proc_0 + 274 pi_d_a1_a2_proc_0
     + 274 pi_d_a1_a3_proc_0 + 274 pi_d_a1_a4_proc_0 + 274 pi_d_a1_a5_proc_0
     + 274 pi_d_a1_a6_proc_0 + 274 pi_d_a1_a7_proc_0 + 274 pi_d_a1_a9_proc_0
     + pi_y1_a1 + pi_y2_a1_proc_0 >= 0
 c8: 749 pi_p_a1_a0 + 749 pi_d_a1_a0_proc_1 + 749 pi_d_a1_a2_proc_1
     + 749 pi_d_a1_a3_proc_1 + 749 pi_d_a1_a4_proc_1 + 749 pi_d_a1_a5_proc_1
     + 749 pi_d_a1_a6_proc_1 + 749 pi_d_a1_a7_proc_1 + 749 pi_d_a1_a8_proc_1
     + 749 pi_d_a1_a9_proc_1 + pi_y1_a1 + pi_y2_a1_proc_1 >= 0
 c9: pi_p_a2_a1 - pi_p_a5_a2 - pi_p_a7_a2 - pi_p_a8_a2 - pi_d_a0_a2_proc_1
     - pi_d_a0_a2_proc_0 + pi_d_a2_a0_proc_1 + pi_d_a2_a0_proc_0
     - pi_d_a1_a2_proc_1 - pi_d_a1_a2_proc_0 + pi_d_a2_a1_proc_1
     + pi_d_a2_a1_proc_0 + pi_d_a2_a3_proc_1 + pi_d_a2_a3_proc_0
     - pi_d_a3_a2_proc_1 - pi_d_a3_a2_proc_0 + pi_d_a2_a4_proc_1
     + pi_d_a2_a4_proc_0 - pi_d_a4_a2_proc_1 - pi_d_a4_a2_proc_0
     + pi_d_a2_a5_proc_1 + pi_d_a2_a5_proc_0 - pi_d_a5_a2_proc_1
     - pi_d_a5_a2_proc_0 + pi_d_a2_a6_proc_1 + pi_d_a2_a6_proc_0
     - pi_d_a6_a2_proc_1 - pi_d_a6_a2_proc_0 + pi_d_a2_a7_proc_1
     + pi_d_a2_a7_proc_0 - pi_d_a7_a2_proc_1 - pi_d_a7_a2_proc_0
     + pi_d_a2_a8_proc_1 - pi_d_a8_a2_proc_1 + pi_d_a2_a9_proc_1
     + pi_d_a2_a9_proc_0 - pi_d_a9_a2_proc_1 - pi_d_a9_a2_proc_0 >= 0
 c10: 568 pi_p_a2_a1 + 568 pi_d_a2_a0_proc_0 + 568 pi_d_a2_a1_proc_0
      + 568 pi_d_a2_a3_proc_0 + 568 pi_d_a2_a4_proc_0 + 568 pi_d_a2_a5_proc_0
      + 568 pi_d_a2_a6_proc_0 + 568 pi_d_a2_a7_proc_0 + 568 pi_d_a2_a9_proc_0
      + pi_y1_a2 + pi_y2_a2_proc_0 >= 0
 c11: 875 pi_p_a2_a1 + 875 pi_d_a2_a0_proc_1 + 875 pi_d_a2_a1_proc_1
      + 875 pi_d_a2_a3_proc_1 + 875 pi_d_a2_a4_proc_1 + 875 pi_d_a2_a5_proc_1
      + 875 pi_d_a2_a6_proc_1 + 875 pi_d_a2_a7_proc_1 + 875 pi_d_a2_a8_proc_1
      + 875 pi_d_a2_a9_proc_1 + pi_y1_a2 + pi_y2_a2_proc_1 >= 0
 c12: - pi_p_a0_a3 + pi_p_a3_a4 + pi_p_a3_a7 - pi_d_a0_a3_proc_1
      - pi_d_a0_a3_proc_0 + pi_d_a3_a0_proc_1 + pi_d_a3_a0_proc_0
      - pi_d_a1_a3_proc_1 - pi_d_a1_a3_proc_0 + pi_d_a3_a1_proc_1
      + pi_d_a3_a1_proc_0 - pi_d_a2_a3_proc_1 - pi_d_a2_a3_proc_0
      + pi_d_a3_a2_proc_1 + pi_d_a3_a2_proc_0 + pi_d_a3_a4_proc_1
      + pi_d_a3_a4_proc_0 - pi_d_a4_a3_proc_1 - pi_d_a4_a3_proc_0
      + pi_d_a3_a5_proc_1 + pi_d_a3_a5_proc_0 - pi_d_a5_a3_proc_1
      - pi_d_a5_a3_proc_0 + pi_d_a3_a6_proc_1 + pi_d_a3_a6_proc_0
      - pi_d_a6_a3_proc_1 - pi_d_a6_a3_proc_0 + pi_d_a3_a7_proc_1
      + pi_d_a3_a7_proc_0 - pi_d_a7_a3_proc_1 - pi_d_a7_a3_proc_0
      + pi_d_a3_a8_proc_1 - pi_d_a8_a3_proc_1 + pi_d_a3_a9_proc_1
      + pi_d_a3_a9_proc_0 - pi_d_a9_a3_proc_1 - pi_d_a9_a3_proc_0 >= 0
 c13: 1223 pi_p_a3_a4 + 1223 pi_p_a3_a7 + 1223 pi_d_a3_a0_proc_0
      + 1223 pi_d_a3_a1_proc_0 + 1223 pi_d_a3_a2_proc_0 + 1223 pi_d_a3_a4_proc_0
      + 1223 pi_d_a3_a5_proc_0 + 1223 pi_d_a3_a6_proc_0 + 1223 pi_d_a3_a7_proc_0
      + 1223 pi_d_a3_a9_proc_0 + pi_y1_a3 + pi_y2_a3_proc_0 >= 0
 c14: 1027 pi_p_a3_a4 + 1027 pi_p_a3_a7 + 1027 pi_d_a3_a0_proc_1
      + 1027 pi_d_a3_a1_proc_1 + 1027 pi_d_a3_a2_proc_1 + 1027 pi_d_a3_a4_proc_1
      + 1027 pi_d_a3_a5_proc_1 + 1027 pi_d_a3_a6_proc_1 + 1027 pi_d_a3_a7_proc_1
      + 1027 pi_d_a3_a8_proc_1 + 1027 pi_d_a3_a9_proc_1 + pi_y1_a3
      + pi_y2_a3_proc_1 >= 0
 c15: - pi_p_a3_a4 - pi_p_a8_a4 - pi_p_a7_a4 + pi_p_a4_a6 + pi_p_a4_a9
      - pi_d_a0_a4_proc_1 - pi_d_a0_a4_proc_0 + pi_d_a4_a0_proc_1
      + pi_d_a4_a0_proc_0 - pi_d_a1_a4_proc_1 - pi_d_a1_a4_proc_0
      + pi_d_a4_a1_proc_1 + pi_d_a4_a1_proc_0 - pi_d_a2_a4_proc_1
      - pi_d_a2_a4_proc_0 + pi_d_a4_a2_proc_1 + pi_d_a4_a2_proc_0
      - pi_d_a3_a4_proc_1 - pi_d_a3_a4_proc_0 + pi_d_a4_a3_proc_1
      + pi_d_a4_a3_proc_0 + pi_d_a4_a5_proc_1 + pi_d_a4_a5_proc_0
      - pi_d_a5_a4_proc_1 - pi_d_a5_a4_proc_0 + pi_d_a4_a6_proc_1
      + pi_d_a4_a6_proc_0 - pi_d_a6_a4_proc_1 - pi_d_a6_a4_proc_0
      + pi_d_a4_a7_proc_1 + pi_d_a4_a7_proc_0 - pi_d_a7_a4_proc_1
      - pi_d_a7_a4_proc_0 + pi_d_a4_a8_proc_1 - pi_d_a8_a4_proc_1
      + pi_d_a4_a9_proc_1 + pi_d_a4_a9_proc_0 - pi_d_a9_a4_proc_1
      - pi_d_a9_a4_proc_0 >= 0
 c16: 902 pi_p_a4_a6 + 902 pi_p_a4_a9 + 902 pi_d_a4_a0_proc_0
      + 902 pi_d_a4_a1_proc_0 + 902 pi_d_a4_a2_proc_0 + 902 pi_d_a4_a3_proc_0
      + 902 pi_d_a4_a5_proc_0 + 902 pi_d_a4_a6_proc_0 + 902 pi_d_a4_a7_proc_0
      + 902 pi_d_a4_a9_proc_0 + pi_y1_a4 + pi_y2_a4_proc_0 >= 0
 c17: 880 pi_p_a4_a6 + 880 pi_p_a4_a9 + 880 pi_d_a4_a0_proc_1
      + 880 pi_d_a4_a1_proc_1 + 880 pi_d_a4_a2_proc_1 + 880 pi_d_a4_a3_proc_1
      + 880 pi_d_a4_a5_proc_1 + 880 pi_d_a4_a6_proc_1 + 880 pi_d_a4_a7_proc_1
      + 880 pi_d_a4_a8_proc_1 + 880 pi_d_a4_a9_proc_1 + pi_y1_a4
      + pi_y2_a4_proc_1 >= 0
 c18: pi_p_a5_a2 - pi_p_a9_a5 - pi_p_a8_a5 - pi_d_a0_a5_proc_1
      - pi_d_a0_a5_proc_0 + pi_d_a5_a0_proc_1 + pi_d_a5_a0_proc_0
      - pi_d_a1_a5_proc_1 - pi_d_a1_a5_proc_0 + pi_d_a5_a1_proc_1
      + pi_d_a5_a1_proc_0 - pi_d_a2_a5_proc_1 - pi_d_a2_a5_proc_0
      + pi_d_a5_a2_proc_1 + pi_d_a5_a2_proc_0 - pi_d_a3_a5_proc_1
      - pi_d_a3_a5_proc_0 + pi_d_a5_a3_proc_1 + pi_d_a5_a3_proc_0
      - pi_d_a4_a5_proc_1 - pi_d_a4_a5_proc_0 + pi_d_a5_a4_proc_1
      + pi_d_a5_a4_proc_0 + pi_d_a5_a6_proc_1 + pi_d_a5_a6_proc_0
      - pi_d_a6_a5_proc_1 - pi_d_a6_a5_proc_0 + pi_d_a5_a7_proc_1
      + pi_d_a5_a7_proc_0 - pi_d_a7_a5_proc_1 - pi_d_a7_a5_proc_0
      + pi_d_a5_a8_proc_1 - pi_d_a8_a5_proc_1 + pi_d_a5_a9_proc_1
      + pi_d_a5_a9_proc_0 - pi_d_a9_a5_proc_1 - pi_d_a9_a5_proc_0 >= 0
 c19: 734 pi_p_a5_a2 + 734 pi_d_a5_a0_proc_0 + 734 pi_d_a5_a1_proc_0
      + 734 pi_d_a5_a2_proc_0 + 734 pi_d_a5_a3_proc_0 + 734 pi_d_a5_a4_proc_0
      + 734 pi_d_a5_a6_proc_0 + 734 pi_d_a5_a7_proc_0 + 734 pi_d_a5_a9_proc_0
      + pi_y1_a5 + pi_y2_a5_proc_0 >= 0
 c20: 982 pi_p_a5_a2 + 982 pi_d_a5_a0_proc_1 + 982 pi_d_a5_a1_proc_1
      + 982 pi_d_a5_a2_proc_1 + 982 pi_d_a5_a3_proc_1 + 982 pi_d_a5_a4_proc_1
      + 982 pi_d_a5_a6_proc_1 + 982 pi_d_a5_a7_proc_1 + 982 pi_d_a5_a8_proc_1
      + 982 pi_d_a5_a9_proc_1 + pi_y1_a5 + pi_y2_a5_proc_1 >= 0
 c21: pi_p_a6_a0 - pi_p_a4_a6 - pi_d_a0_a6_proc_1 - pi_d_a0_a6_proc_0
      + pi_d_a6_a0_proc_1 + pi_d_a6_a0_proc_0 - pi_d_a1_a6_proc_1
      - pi_d_a1_a6_proc_0 + pi_d_a6_a1_proc_1 + pi_d_a6_a1_proc_0
      - pi_d_a2_a6_proc_1 - pi_d_a2_a6_proc_0 + pi_d_a6_a2_proc_1
      + pi_d_a6_a2_proc_0 - pi_d_a3_a6_proc_1 - pi_d_a3_a6_proc_0
      + pi_d_a6_a3_proc_1 + pi_d_a6_a3_proc_0 - pi_d_a4_a6_proc_1
      - pi_d_a4_a6_proc_0 + pi_d_a6_a4_proc_1 + pi_d_a6_a4_proc_0
      - pi_d_a5_a6_proc_1 - pi_d_a5_a6_proc_0 + pi_d_a6_a5_proc_1
      + pi_d_a6_a5_proc_0 + pi_d_a6_a7_proc_1 + pi_d_a6_a7_proc_0
      - pi_d_a7_a6_proc_1 - pi_d_a7_a6_proc_0 + pi_d_a6_a8_proc_1
      - pi_d_a8_a6_proc_1 + pi_d_a6_a9_proc_1 + pi_d_a6_a9_proc_0
      - pi_d_a9_a6_proc_1 - pi_d_a9_a6_proc_0 >= 0
 c22: 1087 pi_p_a6_a0 + 1087 pi_d_a6_a0_proc_0 + 1087 pi_d_a6_a1_proc_0
      + 1087 pi_d_a6_a2_proc_0 + 1087 pi_d_a6_a3_proc_0 + 1087 pi_d_a6_a4_proc_0
      + 1087 pi_d_a6_a5_proc_0 + 1087 pi_d_a6_a7_proc_0 + 1087 pi_d_a6_a9_proc_0
      + pi_y1_a6 + pi_y2_a6_proc_0 >= 0
 c23: 517 pi_p_a6_a0 + 517 pi_d_a6_a0_proc_1 + 517 pi_d_a6_a1_proc_1
      + 517 pi_d_a6_a2_proc_1 + 517 pi_d_a6_a3_proc_1 + 517 pi_d_a6_a4_proc_1
      + 517 pi_d_a6_a5_proc_1 + 517 pi_d_a6_a7_proc_1 + 517 pi_d_a6_a8_proc_1
      + 517 pi_d_a6_a9_proc_1 + pi_y1_a6 + pi_y2_a6_proc_1 >= 0
 c24: - pi_p_a3_a7 + pi_p_a7_a4 + pi_p_a7_a8 + pi_p_a7_a2 - pi_d_a0_a7_proc_1
      - pi_d_a0_a7_proc_0 + pi_d_a7_a0_proc_1 + pi_d_a7_a0_proc_0
      - pi_d_a1_a7_proc_1 - pi_d_a1_a7_proc_0 + pi_d_a7_a1_proc_1
      + pi_d_a7_a1_proc_0 - pi_d_a2_a7_proc_1 - pi_d_a2_a7_proc_0
      + pi_d_a7_a2_proc_1 + pi_d_a7_a2_proc_0 - pi_d_a3_a7_proc_1
      - pi_d_a3_a7_proc_0 + pi_d_a7_a3_proc_1 + pi_d_a7_a3_proc_0
      - pi_d_a4_a7_proc_1 - pi_d_a4_a7_proc_0 + pi_d_a7_a4_proc_1
      + pi_d_a7_a4_proc_0 - pi_d_a5_a7_proc_1 - pi_d_a5_a7_proc_0
      + pi_d_a7_a5_proc_1 + pi_d_a7_a5_proc_0 - pi_d_a6_a7_proc_1
      - pi_d_a6_a7_proc_0 + pi_d_a7_a6_proc_1 + pi_d_a7_a6_proc_0
      + pi_d_a7_a8_proc_1 - pi_d_a8_a7_proc_1 + pi_d_a7_a9_proc_1
      + pi_d_a7_a9_proc_0 - pi_d_a9_a7_proc_1 - pi_d_a9_a7_proc_0 >= 0
 c25: 919 pi_p_a7_a4 + 919 pi_p_a7_a8 + 919 pi_p_a7_a2 + 919 pi_d_a7_a0_proc_0
      + 919 pi_d_a7_a1_proc_0 + 919 pi_d_a7_a2_proc_0 + 919 pi_d_a7_a3_proc_0
      + 919 pi_d_a7_a4_proc_0 + 919 pi_d_a7_a5_proc_0 + 919 pi_d_a7_a6_proc_0
      + 919 pi_d_a7_a9_proc_0 + pi_y1_a7 + pi_y2_a7_proc_0 >= 0
 c26: 1135 pi_p_a7_a4 + 1135 pi_p_a7_a8 + 1135 pi_p_a7_a2
      + 1135 pi_d_a7_a0_proc_1 + 1135 pi_d_a7_a1_proc_1 + 1135 pi_d_a7_a2_proc_1
      + 1135 pi_d_a7_a3_proc_1 + 1135 pi_d_a7_a4_proc_1 + 1135 pi_d_a7_a5_proc_1
      + 1135 pi_d_a7_a6_proc_1 + 1135 pi_d_a7_a8_proc_1 + 1135 pi_d_a7_a9_proc_1
      + pi_y1_a7 + pi_y2_a7_proc_1 >= 0
 c27: pi_p_a8_a4 - pi_p_a9_a8 - pi_p_a7_a8 + pi_p_a8_a5 + pi_p_a8_a2
      - pi_d_a0_a8_proc_1 + pi_d_a8_a0_proc_1 - pi_d_a1_a8_proc_1
      + pi_d_a8_a1_proc_1 - pi_d_a2_a8_proc_1 + pi_d_a8_a2_proc_1
      - pi_d_a3_a8_proc_1 + pi_d_a8_a3_proc_1 - pi_d_a4_a8_proc_1
      + pi_d_a8_a4_proc_1 - pi_d_a5_a8_proc_1 + pi_d_a8_a5_proc_1
      - pi_d_a6_a8_proc_1 + pi_d_a8_a6_proc_1 - pi_d_a7_a8_proc_1
      + pi_d_a8_a7_proc_1 + pi_d_a8_a9_proc_1 - pi_d_a9_a8_proc_1 >= 0
 c28: 779 pi_p_a8_a4 + 779 pi_p_a8_a5 + 779 pi_p_a8_a2 + 779 pi_d_a8_a0_proc_1
      + 779 pi_d_a8_a1_proc_1 + 779 pi_d_a8_a2_proc_1 + 779 pi_d_a8_a3_proc_1
      + 779 pi_d_a8_a4_proc_1 + 779 pi_d_a8_a5_proc_1 + 779 pi_d_a8_a6_proc_1
      + 779 pi_d_a8_a7_proc_1 + 779 pi_d_a8_a9_proc_1 + pi_y1_a8
      + pi_y2_a8_proc_1 >= 0
 c29: pi_p_a9_a8 + pi_p_a9_a5 - pi_p_a4_a9 - pi_d_a0_a9_proc_1
      - pi_d_a0_a9_proc_0 + pi_d_a9_a0_proc_1 + pi_d_a9_a0_proc_0
      - pi_d_a1_a9_proc_1 - pi_d_a1_a9_proc_0 + pi_d_a9_a1_proc_1
      + pi_d_a9_a1_proc_0 - pi_d_a2_a9_proc_1 - pi_d_a2_a9_proc_0
      + pi_d_a9_a2_proc_1 + pi_d_a9_a2_proc_0 - pi_d_a3_a9_proc_1
      - pi_d_a3_a9_proc_0 + pi_d_a9_a3_proc_1 + pi_d_a9_a3_proc_0
      - pi_d_a4_a9_proc_1 - pi_d_a4_a9_proc_0 + pi_d_a9_a4_proc_1
      + pi_d_a9_a4_proc_0 - pi_d_a5_a9_proc_1 - pi_d_a5_a9_proc_0
      + pi_d_a9_a5_proc_1 + pi_d_a9_a5_proc_0 - pi_d_a6_a9_proc_1
      - pi_d_a6_a9_proc_0 + pi_d_a9_a6_proc_1 + pi_d_a9_a6_proc_0
      - pi_d_a7_a9_proc_1 - pi_d_a7_a9_proc_0 + pi_d_a9_a7_proc_1
      + pi_d_a9_a7_proc_0 - pi_d_a8_a9_proc_1 + pi_d_a9_a8_proc_1 >= 0
 c30: 1218 pi_p_a9_a8 + 1218 pi_p_a9_a5 + 1218 pi_d_a9_a0_proc_0
      + 1218 pi_d_a9_a1_proc_0 + 1218 pi_d_a9_a2_proc_0 + 1218 pi_d_a9_a3_proc_0
      + 1218 pi_d_a9_a4_proc_0 + 1218 pi_d_a9_a5_proc_0 + 1218 pi_d_a9_a6_proc_0
      + 1218 pi_d_a9_a7_proc_0 + pi_y1_a9 + pi_y2_a9_proc_0 >= 0
 c31: 1165 pi_p_a9_a8 + 1165 pi_p_a9_a5 + 1165 pi_d_a9_a0_proc_1
      + 1165 pi_d_a9_a1_proc_1 + 1165 pi_d_a9_a2_proc_1 + 1165 pi_d_a9_a3_proc_1
      + 1165 pi_d_a9_a4_proc_1 + 1165 pi_d_a9_a5_proc_1 + 1165 pi_d_a9_a6_proc_1
      + 1165 pi_d_a9_a7_proc_1 + 1165 pi_d_a9_a8_proc_1 + pi_y1_a9
      + pi_y2_a9_proc_1 >= 0

Bounds
       pi_y1_a0 Free
       pi_y1_a1 Free
       pi_y1_a2 Free
       pi_y1_a3 Free
       pi_y1_a4 Free
       pi_y1_a5 Free
       pi_y1_a6 Free
       pi_y1_a7 Free
       pi_y1_a8 Free
       pi_y1_a9 Free
End
