benchmark/results/graph__10-1000-0.10-02_4/graph__10-1000-0.10-02_4_QuintonOs_Benders_aux.txt
solution for: Quinton Bounded Benders_auxiliary_sub
objective: 0.000140036
status: OPTIMAL_SOLUTION(2)
pi_p_a1_a0=0.000
pi_p_a2_a1=0.000
pi_p_a0_a3=0.000
pi_p_a5_a2=0.000
pi_p_a3_a7=0.000
pi_p_a9_a8=0.000
pi_p_a7_a4=0.000
pi_p_a8_a5=0.000
pi_p_a4_a9=0.000
pi_y1_a0=-0.111
pi_y1_a1=-0.038
pi_y1_a2=-0.080
pi_y1_a3=-0.144
pi_y1_a4=-0.123
pi_y1_a5=-0.103
pi_y1_a7=-0.129
pi_y1_a8=-0.109
pi_y1_a9=-0.163
